3 
4 
5  03 20 35 50 
6  05 20 35 47 
7  02 17 32 47 
8  02 17 32 47 
9  02 17 32 47 
10  02 17 32 47 
11  02 17 32 47 
12  02 17 32 47 
13  02 17 32 47 
14  02 17 32 46 
15  01 16 31 46 
16  01 16 31 46 
17  01 16 31 46 
18  01 16 31 47 
19  02 17 32 49 
20  04 19 34 49 
21  04 19 34 49 
22  04 19 34 50 
23  10 27 
0 
